25 50
1 2 5
1 6 5
2 3 5
2 7 4
3 4 4
3 8 5
4 5 5
4 9 4
5 10 5
6 7 4
6 11 2
7 8 4
7 12 4
8 9 4
8 13 3
9 10 2
9 14 5
10 15 5
11 12 1
11 16 1
12 13 2
12 17 5
13 14 4
13 18 3
14 15 5
14 19 1
15 20 5
16 17 5
16 21 2
17 18 5
17 22 1
18 19 2
18 23 5
19 20 2
19 24 3
20 25 1
21 22 1
22 23 4
23 24 5
24 25 2
1 21 3
2 22 2
3 23 1
4 24 3
5 25 5
1 5 4
6 10 2
11 15 3
16 20 2
21 25 1
